70
1 0 14
2 0 9
2 1 3
3 0 13
3 1 1
3 2 12
4 0 5
4 1 12
4 2 3
4 3 11
5 0 4
5 1 13
5 2 13
5 3 3
5 4 8
6 0 2
6 1 7
6 2 6
6 3 13
6 4 1
6 5 5
7 0 8
7 1 6
7 2 1
7 3 13
7 4 14
7 5 5
7 6 8
8 0 6
8 1 12
8 2 11
8 3 12
8 4 5
8 5 1
8 6 12
8 7 2
9 0 14
9 1 2
9 2 14
9 3 14
9 4 12
9 5 13
9 6 14
9 7 3
9 8 1
10 0 10
10 1 8
10 2 8
10 3 8
10 4 6
10 5 1
10 6 12
10 7 10
10 8 12
10 9 12
11 0 7
11 1 12
11 2 4
11 3 3
11 4 4
11 5 9
11 6 1
11 7 5
11 8 10
11 9 5
11 10 5
12 0 6
12 1 3
12 2 5
12 3 7
12 4 5
12 5 13
12 6 14
12 7 5
12 8 14
12 9 2
12 10 7
12 11 8
13 0 1
13 1 14
13 2 10
13 3 14
13 4 1
13 5 9
13 6 5
13 7 8
13 8 1
13 9 4
13 10 11
13 11 2
13 12 13
14 0 10
14 1 5
14 2 13
14 3 2
14 4 9
14 5 7
14 6 6
14 7 7
14 8 1
14 9 7
14 10 3
14 11 3
14 12 13
14 13 13
15 0 1
15 1 7
15 2 3
15 3 1
15 4 6
15 5 13
15 6 1
15 7 12
15 8 2
15 9 10
15 10 5
15 11 14
15 12 12
15 13 10
15 14 3
16 0 13
16 1 7
16 2 13
16 3 9
16 4 1
16 5 8
16 6 3
16 7 13
16 8 6
16 9 1
16 10 7
16 11 6
16 12 13
16 13 7
16 14 9
16 15 8
17 0 6
17 1 8
17 2 5
17 3 8
17 4 8
17 5 6
17 6 13
17 7 3
17 8 4
17 9 6
17 10 2
17 11 10
17 12 9
17 13 13
17 14 5
17 15 12
17 16 12
18 0 12
18 1 12
18 2 3
18 3 8
18 4 13
18 5 10
18 6 9
18 7 13
18 8 4
18 9 8
18 10 13
18 11 9
18 12 8
18 13 7
18 14 14
18 15 4
18 16 5
18 17 3
19 0 3
19 1 7
19 2 5
19 3 10
19 4 8
19 5 7
19 6 10
19 7 1
19 8 14
19 9 9
19 10 6
19 11 12
19 12 7
19 13 3
19 14 5
19 15 7
19 16 8
19 17 6
19 18 4
20 0 8
20 1 7
20 2 3
20 3 4
20 4 1
20 5 5
20 6 1
20 7 14
20 8 9
20 9 12
20 10 1
20 11 7
20 12 5
20 13 2
20 14 10
20 15 12
20 16 14
20 17 9
20 18 6
20 19 7
21 0 10
21 1 7
21 2 3
21 3 9
21 4 9
21 5 8
21 6 10
21 7 11
21 8 1
21 9 5
21 10 9
21 11 8
21 12 4
21 13 3
21 14 2
21 15 9
21 16 9
21 17 8
21 18 6
21 19 8
21 20 9
22 0 13
22 1 6
22 2 6
22 3 4
22 4 10
22 5 1
22 6 10
22 7 14
22 8 14
22 9 10
22 10 13
22 11 3
22 12 7
22 13 1
22 14 7
22 15 8
22 16 7
22 17 3
22 18 14
22 19 7
22 20 5
22 21 2
23 0 10
23 1 4
23 2 7
23 3 2
23 4 11
23 5 2
23 6 1
23 7 12
23 8 10
23 9 6
23 10 9
23 11 5
23 12 10
23 13 8
23 14 2
23 15 3
23 16 13
23 17 2
23 18 11
23 19 12
23 20 4
23 21 11
23 22 10
24 0 3
24 1 10
24 2 5
24 3 3
24 4 11
24 5 10
24 6 6
24 7 5
24 8 12
24 9 11
24 10 14
24 11 4
24 12 10
24 13 5
24 14 2
24 15 11
24 16 6
24 17 8
24 18 4
24 19 12
24 20 5
24 21 6
24 22 2
24 23 8
25 0 10
25 1 12
25 2 10
25 3 5
25 4 4
25 5 8
25 6 6
25 7 14
25 8 7
25 9 3
25 10 5
25 11 12
25 12 2
25 13 1
25 14 6
25 15 11
25 16 10
25 17 9
25 18 2
25 19 14
25 20 4
25 21 7
25 22 12
25 23 5
25 24 6
26 0 14
26 1 11
26 2 5
26 3 5
26 4 14
26 5 7
26 6 8
26 7 7
26 8 2
26 9 6
26 10 3
26 11 6
26 12 5
26 13 11
26 14 14
26 15 14
26 16 12
26 17 5
26 18 8
26 19 9
26 20 8
26 21 14
26 22 1
26 23 3
26 24 13
26 25 9
27 0 7
27 1 6
27 2 13
27 3 4
27 4 4
27 5 7
27 6 1
27 7 4
27 8 13
27 9 13
27 10 12
27 11 10
27 12 7
27 13 14
27 14 6
27 15 4
27 16 5
27 17 2
27 18 5
27 19 9
27 20 10
27 21 7
27 22 1
27 23 1
27 24 10
27 25 4
27 26 1
28 0 1
28 1 9
28 2 13
28 3 6
28 4 13
28 5 5
28 6 2
28 7 12
28 8 8
28 9 2
28 10 9
28 11 11
28 12 11
28 13 6
28 14 12
28 15 13
28 16 9
28 17 9
28 18 12
28 19 13
28 20 1
28 21 2
28 22 8
28 23 13
28 24 9
28 25 5
28 26 14
28 27 8
29 0 8
29 1 4
29 2 4
29 3 6
29 4 11
29 5 5
29 6 6
29 7 13
29 8 1
29 9 1
29 10 13
29 11 9
29 12 12
29 13 9
29 14 11
29 15 9
29 16 5
29 17 11
29 18 9
29 19 8
29 20 1
29 21 8
29 22 10
29 23 1
29 24 13
29 25 10
29 26 8
29 27 1
29 28 14
30 0 13
30 1 7
30 2 14
30 3 10
30 4 9
30 5 12
30 6 13
30 7 14
30 8 5
30 9 11
30 10 10
30 11 2
30 12 13
30 13 13
30 14 5
30 15 11
30 16 14
30 17 5
30 18 7
30 19 2
30 20 9
30 21 2
30 22 13
30 23 1
30 24 10
30 25 12
30 26 2
30 27 5
30 28 13
30 29 9
31 0 9
31 1 13
31 2 11
31 3 10
31 4 5
31 5 9
31 6 1
31 7 6
31 8 6
31 9 1
31 10 8
31 11 2
31 12 3
31 13 12
31 14 10
31 15 2
31 16 7
31 17 5
31 18 7
31 19 13
31 20 12
31 21 6
31 22 14
31 23 9
31 24 11
31 25 11
31 26 4
31 27 9
31 28 14
31 29 5
31 30 11
32 0 3
32 1 7
32 2 7
32 3 4
32 4 7
32 5 1
32 6 10
32 7 10
32 8 13
32 9 5
32 10 5
32 11 5
32 12 9
32 13 12
32 14 5
32 15 3
32 16 5
32 17 11
32 18 5
32 19 9
32 20 2
32 21 1
32 22 1
32 23 12
32 24 9
32 25 4
32 26 12
32 27 12
32 28 8
32 29 9
32 30 11
32 31 5
33 0 10
33 1 10
33 2 5
33 3 9
33 4 11
33 5 5
33 6 13
33 7 9
33 8 12
33 9 13
33 10 2
33 11 4
33 12 8
33 13 7
33 14 11
33 15 12
33 16 11
33 17 7
33 18 3
33 19 3
33 20 13
33 21 7
33 22 4
33 23 10
33 24 10
33 25 4
33 26 8
33 27 13
33 28 7
33 29 1
33 30 3
33 31 1
33 32 13
34 0 7
34 1 2
34 2 7
34 3 14
34 4 13
34 5 9
34 6 6
34 7 7
34 8 8
34 9 12
34 10 9
34 11 12
34 12 4
34 13 13
34 14 10
34 15 9
34 16 5
34 17 4
34 18 6
34 19 9
34 20 4
34 21 4
34 22 7
34 23 12
34 24 4
34 25 13
34 26 8
34 27 10
34 28 10
34 29 2
34 30 9
34 31 11
34 32 10
34 33 4
35 0 4
35 1 1
35 2 9
35 3 7
35 4 9
35 5 14
35 6 6
35 7 4
35 8 4
35 9 11
35 10 1
35 11 14
35 12 9
35 13 12
35 14 1
35 15 3
35 16 4
35 17 2
35 18 4
35 19 12
35 20 14
35 21 6
35 22 14
35 23 10
35 24 3
35 25 1
35 26 1
35 27 7
35 28 9
35 29 13
35 30 11
35 31 12
35 32 5
35 33 5
35 34 4
36 0 8
36 1 12
36 2 9
36 3 6
36 4 11
36 5 1
36 6 5
36 7 4
36 8 2
36 9 3
36 10 10
36 11 4
36 12 11
36 13 2
36 14 2
36 15 4
36 16 1
36 17 10
36 18 8
36 19 14
36 20 13
36 21 2
36 22 4
36 23 9
36 24 3
36 25 3
36 26 8
36 27 13
36 28 8
36 29 6
36 30 5
36 31 1
36 32 6
36 33 11
36 34 11
36 35 8
37 0 1
37 1 11
37 2 7
37 3 8
37 4 4
37 5 8
37 6 5
37 7 10
37 8 3
37 9 12
37 10 3
37 11 14
37 12 1
37 13 4
37 14 14
37 15 5
37 16 10
37 17 5
37 18 1
37 19 4
37 20 13
37 21 8
37 22 11
37 23 4
37 24 7
37 25 1
37 26 4
37 27 5
37 28 8
37 29 7
37 30 3
37 31 9
37 32 14
37 33 6
37 34 2
37 35 3
37 36 5
38 0 8
38 1 12
38 2 4
38 3 5
38 4 12
38 5 13
38 6 10
38 7 4
38 8 6
38 9 10
38 10 6
38 11 8
38 12 14
38 13 14
38 14 14
38 15 13
38 16 13
38 17 9
38 18 1
38 19 7
38 20 9
38 21 10
38 22 5
38 23 5
38 24 9
38 25 5
38 26 14
38 27 14
38 28 3
38 29 4
38 30 2
38 31 8
38 32 12
38 33 4
38 34 6
38 35 9
38 36 3
38 37 3
39 0 10
39 1 11
39 2 5
39 3 5
39 4 3
39 5 6
39 6 3
39 7 2
39 8 9
39 9 1
39 10 12
39 11 4
39 12 10
39 13 14
39 14 11
39 15 4
39 16 8
39 17 3
39 18 6
39 19 2
39 20 4
39 21 14
39 22 1
39 23 5
39 24 4
39 25 8
39 26 8
39 27 14
39 28 2
39 29 7
39 30 1
39 31 3
39 32 1
39 33 3
39 34 5
39 35 5
39 36 6
39 37 1
39 38 8
40 0 13
40 1 8
40 2 5
40 3 1
40 4 4
40 5 4
40 6 11
40 7 2
40 8 4
40 9 13
40 10 11
40 11 12
40 12 6
40 13 10
40 14 11
40 15 5
40 16 5
40 17 6
40 18 5
40 19 7
40 20 10
40 21 2
40 22 7
40 23 7
40 24 10
40 25 4
40 26 1
40 27 13
40 28 1
40 29 12
40 30 1
40 31 1
40 32 2
40 33 14
40 34 13
40 35 3
40 36 9
40 37 1
40 38 4
40 39 12
41 0 7
41 1 11
41 2 3
41 3 14
41 4 2
41 5 3
41 6 11
41 7 5
41 8 9
41 9 10
41 10 11
41 11 3
41 12 10
41 13 1
41 14 3
41 15 12
41 16 14
41 17 2
41 18 11
41 19 12
41 20 12
41 21 12
41 22 12
41 23 5
41 24 9
41 25 4
41 26 13
41 27 3
41 28 12
41 29 6
41 30 9
41 31 9
41 32 6
41 33 2
41 34 14
41 35 14
41 36 3
41 37 10
41 38 1
41 39 3
41 40 10
42 0 7
42 1 7
42 2 10
42 3 13
42 4 8
42 5 10
42 6 10
42 7 6
42 8 13
42 9 12
42 10 3
42 11 6
42 12 10
42 13 2
42 14 12
42 15 11
42 16 11
42 17 3
42 18 3
42 19 4
42 20 2
42 21 14
42 22 13
42 23 7
42 24 1
42 25 8
42 26 4
42 27 13
42 28 13
42 29 2
42 30 5
42 31 10
42 32 9
42 33 14
42 34 11
42 35 1
42 36 6
42 37 8
42 38 7
42 39 2
42 40 7
42 41 4
43 0 13
43 1 10
43 2 5
43 3 12
43 4 14
43 5 3
43 6 4
43 7 14
43 8 3
43 9 2
43 10 8
43 11 10
43 12 12
43 13 6
43 14 3
43 15 1
43 16 10
43 17 2
43 18 1
43 19 10
43 20 2
43 21 2
43 22 10
43 23 3
43 24 10
43 25 14
43 26 14
43 27 13
43 28 13
43 29 9
43 30 10
43 31 3
43 32 8
43 33 4
43 34 11
43 35 7
43 36 1
43 37 10
43 38 2
43 39 4
43 40 6
43 41 13
43 42 12
44 0 1
44 1 10
44 2 11
44 3 12
44 4 10
44 5 9
44 6 3
44 7 7
44 8 4
44 9 11
44 10 8
44 11 3
44 12 1
44 13 5
44 14 9
44 15 12
44 16 12
44 17 13
44 18 7
44 19 3
44 20 9
44 21 8
44 22 7
44 23 6
44 24 2
44 25 13
44 26 5
44 27 14
44 28 1
44 29 6
44 30 2
44 31 10
44 32 2
44 33 12
44 34 11
44 35 2
44 36 12
44 37 6
44 38 5
44 39 3
44 40 9
44 41 11
44 42 2
44 43 3
45 0 2
45 1 2
45 2 4
45 3 9
45 4 4
45 5 14
45 6 12
45 7 13
45 8 3
45 9 7
45 10 6
45 11 8
45 12 7
45 13 8
45 14 10
45 15 12
45 16 4
45 17 3
45 18 10
45 19 1
45 20 3
45 21 1
45 22 2
45 23 14
45 24 2
45 25 14
45 26 8
45 27 10
45 28 14
45 29 7
45 30 7
45 31 5
45 32 9
45 33 4
45 34 10
45 35 5
45 36 7
45 37 3
45 38 8
45 39 12
45 40 6
45 41 4
45 42 2
45 43 7
45 44 5
46 0 12
46 1 2
46 2 14
46 3 14
46 4 6
46 5 4
46 6 12
46 7 7
46 8 8
46 9 3
46 10 10
46 11 12
46 12 11
46 13 2
46 14 7
46 15 13
46 16 14
46 17 14
46 18 3
46 19 6
46 20 3
46 21 2
46 22 6
46 23 13
46 24 10
46 25 1
46 26 11
46 27 13
46 28 13
46 29 1
46 30 10
46 31 9
46 32 14
46 33 7
46 34 6
46 35 12
46 36 9
46 37 14
46 38 9
46 39 1
46 40 2
46 41 3
46 42 9
46 43 11
46 44 12
46 45 7
47 0 13
47 1 11
47 2 11
47 3 13
47 4 1
47 5 5
47 6 1
47 7 13
47 8 1
47 9 5
47 10 2
47 11 13
47 12 10
47 13 7
47 14 5
47 15 10
47 16 13
47 17 4
47 18 7
47 19 1
47 20 14
47 21 10
47 22 4
47 23 1
47 24 14
47 25 13
47 26 6
47 27 6
47 28 8
47 29 7
47 30 3
47 31 7
47 32 8
47 33 9
47 34 1
47 35 9
47 36 9
47 37 6
47 38 11
47 39 13
47 40 2
47 41 6
47 42 11
47 43 9
47 44 10
47 45 6
47 46 12
48 0 3
48 1 6
48 2 11
48 3 6
48 4 11
48 5 3
48 6 4
48 7 13
48 8 7
48 9 8
48 10 5
48 11 2
48 12 3
48 13 14
48 14 10
48 15 14
48 16 7
48 17 2
48 18 8
48 19 13
48 20 9
48 21 6
48 22 11
48 23 4
48 24 8
48 25 7
48 26 5
48 27 10
48 28 14
48 29 7
48 30 5
48 31 13
48 32 5
48 33 13
48 34 2
48 35 6
48 36 4
48 37 13
48 38 1
48 39 4
48 40 10
48 41 5
48 42 13
48 43 11
48 44 4
48 45 3
48 46 1
48 47 4
49 0 9
49 1 1
49 2 13
49 3 7
49 4 12
49 5 10
49 6 1
49 7 5
49 8 2
49 9 1
49 10 5
49 11 12
49 12 2
49 13 2
49 14 12
49 15 8
49 16 9
49 17 2
49 18 3
49 19 5
49 20 4
49 21 1
49 22 9
49 23 11
49 24 3
49 25 11
49 26 10
49 27 6
49 28 13
49 29 1
49 30 7
49 31 12
49 32 13
49 33 1
49 34 1
49 35 14
49 36 10
49 37 3
49 38 5
49 39 7
49 40 8
49 41 4
49 42 9
49 43 6
49 44 13
49 45 9
49 46 2
49 47 8
49 48 8
50 0 8
50 1 6
50 2 8
50 3 5
50 4 1
50 5 6
50 6 3
50 7 3
50 8 11
50 9 7
50 10 5
50 11 12
50 12 12
50 13 5
50 14 7
50 15 5
50 16 13
50 17 1
50 18 1
50 19 2
50 20 5
50 21 8
50 22 1
50 23 4
50 24 8
50 25 10
50 26 8
50 27 10
50 28 9
50 29 7
50 30 8
50 31 10
50 32 12
50 33 7
50 34 14
50 35 10
50 36 10
50 37 7
50 38 2
50 39 6
50 40 2
50 41 11
50 42 8
50 43 11
50 44 11
50 45 10
50 46 3
50 47 2
50 48 14
50 49 6
51 0 11
51 1 3
51 2 4
51 3 6
51 4 7
51 5 5
51 6 6
51 7 8
51 8 2
51 9 13
51 10 1
51 11 4
51 12 14
51 13 13
51 14 12
51 15 2
51 16 9
51 17 6
51 18 9
51 19 2
51 20 1
51 21 6
51 22 8
51 23 2
51 24 10
51 25 3
51 26 9
51 27 2
51 28 4
51 29 12
51 30 1
51 31 7
51 32 12
51 33 11
51 34 8
51 35 10
51 36 7
51 37 12
51 38 8
51 39 7
51 40 4
51 41 11
51 42 11
51 43 5
51 44 8
51 45 6
51 46 12
51 47 8
51 48 2
51 49 10
51 50 5
52 0 4
52 1 8
52 2 11
52 3 9
52 4 1
52 5 6
52 6 12
52 7 8
52 8 5
52 9 6
52 10 6
52 11 11
52 12 7
52 13 12
52 14 11
52 15 7
52 16 4
52 17 2
52 18 12
52 19 2
52 20 11
52 21 3
52 22 13
52 23 4
52 24 13
52 25 4
52 26 1
52 27 9
52 28 5
52 29 7
52 30 1
52 31 5
52 32 9
52 33 4
52 34 1
52 35 7
52 36 9
52 37 2
52 38 8
52 39 8
52 40 13
52 41 2
52 42 8
52 43 8
52 44 10
52 45 4
52 46 9
52 47 2
52 48 6
52 49 14
52 50 9
52 51 12
53 0 3
53 1 8
53 2 2
53 3 4
53 4 12
53 5 9
53 6 8
53 7 12
53 8 11
53 9 13
53 10 2
53 11 2
53 12 11
53 13 7
53 14 3
53 15 4
53 16 3
53 17 12
53 18 11
53 19 3
53 20 11
53 21 5
53 22 13
53 23 1
53 24 8
53 25 10
53 26 1
53 27 8
53 28 14
53 29 6
53 30 10
53 31 14
53 32 14
53 33 5
53 34 12
53 35 5
53 36 10
53 37 7
53 38 2
53 39 10
53 40 12
53 41 1
53 42 4
53 43 12
53 44 8
53 45 10
53 46 8
53 47 14
53 48 8
53 49 7
53 50 6
53 51 5
53 52 1
54 0 5
54 1 11
54 2 12
54 3 2
54 4 1
54 5 8
54 6 1
54 7 5
54 8 7
54 9 3
54 10 13
54 11 3
54 12 9
54 13 14
54 14 12
54 15 2
54 16 12
54 17 7
54 18 12
54 19 9
54 20 2
54 21 7
54 22 11
54 23 11
54 24 5
54 25 14
54 26 14
54 27 8
54 28 13
54 29 14
54 30 10
54 31 7
54 32 3
54 33 11
54 34 1
54 35 10
54 36 8
54 37 2
54 38 3
54 39 9
54 40 5
54 41 12
54 42 10
54 43 5
54 44 11
54 45 6
54 46 14
54 47 11
54 48 4
54 49 4
54 50 10
54 51 3
54 52 4
54 53 10
55 0 3
55 1 11
55 2 6
55 3 2
55 4 13
55 5 10
55 6 4
55 7 1
55 8 8
55 9 7
55 10 7
55 11 10
55 12 3
55 13 7
55 14 2
55 15 13
55 16 13
55 17 3
55 18 7
55 19 5
55 20 14
55 21 6
55 22 10
55 23 13
55 24 4
55 25 7
55 26 10
55 27 6
55 28 6
55 29 2
55 30 3
55 31 9
55 32 10
55 33 6
55 34 3
55 35 8
55 36 12
55 37 10
55 38 12
55 39 4
55 40 6
55 41 4
55 42 12
55 43 1
55 44 8
55 45 7
55 46 5
55 47 2
55 48 14
55 49 4
55 50 4
55 51 2
55 52 5
55 53 1
55 54 1
56 0 4
56 1 7
56 2 11
56 3 14
56 4 10
56 5 3
56 6 1
56 7 1
56 8 5
56 9 6
56 10 4
56 11 13
56 12 13
56 13 8
56 14 6
56 15 10
56 16 4
56 17 9
56 18 1
56 19 12
56 20 7
56 21 2
56 22 8
56 23 11
56 24 1
56 25 10
56 26 5
56 27 14
56 28 13
56 29 2
56 30 9
56 31 1
56 32 10
56 33 8
56 34 5
56 35 12
56 36 2
56 37 5
56 38 7
56 39 13
56 40 3
56 41 2
56 42 10
56 43 4
56 44 13
56 45 11
56 46 2
56 47 2
56 48 3
56 49 2
56 50 4
56 51 7
56 52 11
56 53 2
56 54 14
56 55 12
57 0 8
57 1 8
57 2 8
57 3 5
57 4 9
57 5 2
57 6 8
57 7 2
57 8 12
57 9 7
57 10 12
57 11 13
57 12 13
57 13 8
57 14 9
57 15 7
57 16 13
57 17 1
57 18 2
57 19 1
57 20 11
57 21 13
57 22 7
57 23 9
57 24 10
57 25 12
57 26 7
57 27 12
57 28 5
57 29 6
57 30 2
57 31 7
57 32 13
57 33 12
57 34 7
57 35 12
57 36 10
57 37 2
57 38 4
57 39 10
57 40 11
57 41 9
57 42 12
57 43 3
57 44 2
57 45 12
57 46 7
57 47 11
57 48 12
57 49 11
57 50 2
57 51 4
57 52 3
57 53 12
57 54 1
57 55 5
57 56 14
58 0 11
58 1 12
58 2 12
58 3 12
58 4 11
58 5 14
58 6 11
58 7 2
58 8 7
58 9 7
58 10 14
58 11 3
58 12 9
58 13 7
58 14 7
58 15 7
58 16 8
58 17 12
58 18 13
58 19 11
58 20 2
58 21 3
58 22 9
58 23 5
58 24 8
58 25 9
58 26 2
58 27 7
58 28 5
58 29 2
58 30 10
58 31 3
58 32 3
58 33 1
58 34 11
58 35 1
58 36 12
58 37 2
58 38 4
58 39 3
58 40 5
58 41 10
58 42 6
58 43 11
58 44 8
58 45 7
58 46 8
58 47 11
58 48 8
58 49 7
58 50 12
58 51 7
58 52 10
58 53 14
58 54 10
58 55 5
58 56 3
58 57 14
59 0 1
59 1 12
59 2 1
59 3 14
59 4 3
59 5 6
59 6 11
59 7 9
59 8 2
59 9 3
59 10 5
59 11 12
59 12 5
59 13 13
59 14 3
59 15 8
59 16 11
59 17 2
59 18 11
59 19 12
59 20 12
59 21 7
59 22 8
59 23 13
59 24 8
59 25 1
59 26 1
59 27 9
59 28 9
59 29 3
59 30 10
59 31 3
59 32 7
59 33 7
59 34 11
59 35 2
59 36 1
59 37 12
59 38 10
59 39 14
59 40 1
59 41 13
59 42 6
59 43 8
59 44 3
59 45 5
59 46 6
59 47 7
59 48 7
59 49 1
59 50 11
59 51 2
59 52 10
59 53 10
59 54 7
59 55 9
59 56 4
59 57 2
59 58 11
60 0 5
60 1 3
60 2 5
60 3 10
60 4 2
60 5 4
60 6 9
60 7 6
60 8 4
60 9 10
60 10 13
60 11 11
60 12 9
60 13 2
60 14 9
60 15 4
60 16 7
60 17 13
60 18 14
60 19 4
60 20 6
60 21 3
60 22 5
60 23 7
60 24 9
60 25 9
60 26 13
60 27 1
60 28 13
60 29 4
60 30 13
60 31 8
60 32 14
60 33 8
60 34 9
60 35 7
60 36 6
60 37 4
60 38 1
60 39 8
60 40 9
60 41 9
60 42 9
60 43 13
60 44 4
60 45 13
60 46 7
60 47 1
60 48 7
60 49 11
60 50 9
60 51 13
60 52 11
60 53 9
60 54 8
60 55 11
60 56 12
60 57 13
60 58 1
60 59 8
61 0 11
61 1 13
61 2 8
61 3 7
61 4 3
61 5 4
61 6 7
61 7 3
61 8 1
61 9 5
61 10 11
61 11 1
61 12 2
61 13 13
61 14 7
61 15 12
61 16 14
61 17 13
61 18 11
61 19 7
61 20 7
61 21 4
61 22 12
61 23 13
61 24 8
61 25 1
61 26 5
61 27 3
61 28 4
61 29 5
61 30 10
61 31 4
61 32 2
61 33 1
61 34 7
61 35 7
61 36 11
61 37 10
61 38 2
61 39 1
61 40 14
61 41 9
61 42 6
61 43 10
61 44 5
61 45 14
61 46 11
61 47 8
61 48 8
61 49 11
61 50 13
61 51 2
61 52 2
61 53 9
61 54 14
61 55 1
61 56 11
61 57 2
61 58 6
61 59 7
61 60 13
62 0 12
62 1 7
62 2 2
62 3 4
62 4 10
62 5 1
62 6 11
62 7 8
62 8 9
62 9 8
62 10 5
62 11 13
62 12 8
62 13 8
62 14 14
62 15 12
62 16 1
62 17 11
62 18 3
62 19 4
62 20 3
62 21 7
62 22 10
62 23 12
62 24 5
62 25 4
62 26 10
62 27 4
62 28 3
62 29 2
62 30 7
62 31 3
62 32 3
62 33 11
62 34 10
62 35 7
62 36 11
62 37 4
62 38 10
62 39 10
62 40 3
62 41 11
62 42 11
62 43 12
62 44 4
62 45 7
62 46 10
62 47 5
62 48 4
62 49 10
62 50 11
62 51 5
62 52 11
62 53 9
62 54 14
62 55 12
62 56 13
62 57 2
62 58 8
62 59 3
62 60 8
62 61 12
63 0 8
63 1 5
63 2 5
63 3 4
63 4 7
63 5 9
63 6 9
63 7 7
63 8 9
63 9 11
63 10 5
63 11 2
63 12 7
63 13 10
63 14 3
63 15 10
63 16 5
63 17 10
63 18 10
63 19 1
63 20 9
63 21 2
63 22 2
63 23 3
63 24 3
63 25 5
63 26 9
63 27 3
63 28 10
63 29 13
63 30 8
63 31 3
63 32 4
63 33 3
63 34 9
63 35 11
63 36 11
63 37 3
63 38 13
63 39 13
63 40 1
63 41 1
63 42 7
63 43 2
63 44 3
63 45 1
63 46 2
63 47 14
63 48 6
63 49 4
63 50 7
63 51 11
63 52 14
63 53 14
63 54 3
63 55 10
63 56 2
63 57 13
63 58 13
63 59 7
63 60 9
63 61 4
63 62 6
64 0 1
64 1 3
64 2 12
64 3 13
64 4 12
64 5 2
64 6 5
64 7 14
64 8 6
64 9 11
64 10 7
64 11 2
64 12 13
64 13 9
64 14 10
64 15 4
64 16 5
64 17 3
64 18 12
64 19 4
64 20 4
64 21 14
64 22 10
64 23 5
64 24 8
64 25 1
64 26 4
64 27 6
64 28 11
64 29 5
64 30 10
64 31 1
64 32 11
64 33 8
64 34 4
64 35 8
64 36 5
64 37 4
64 38 4
64 39 12
64 40 2
64 41 2
64 42 1
64 43 11
64 44 3
64 45 2
64 46 10
64 47 8
64 48 7
64 49 5
64 50 2
64 51 1
64 52 10
64 53 1
64 54 8
64 55 5
64 56 6
64 57 3
64 58 12
64 59 4
64 60 5
64 61 11
64 62 6
64 63 8
65 0 5
65 1 10
65 2 13
65 3 14
65 4 2
65 5 7
65 6 1
65 7 5
65 8 3
65 9 1
65 10 10
65 11 3
65 12 9
65 13 8
65 14 3
65 15 10
65 16 10
65 17 10
65 18 7
65 19 10
65 20 14
65 21 9
65 22 5
65 23 13
65 24 1
65 25 10
65 26 7
65 27 13
65 28 7
65 29 10
65 30 9
65 31 13
65 32 8
65 33 12
65 34 9
65 35 6
65 36 13
65 37 9
65 38 2
65 39 7
65 40 1
65 41 6
65 42 11
65 43 7
65 44 9
65 45 8
65 46 2
65 47 3
65 48 5
65 49 7
65 50 6
65 51 6
65 52 1
65 53 13
65 54 11
65 55 6
65 56 9
65 57 14
65 58 2
65 59 12
65 60 9
65 61 2
65 62 8
65 63 9
65 64 1
66 0 12
66 1 11
66 2 3
66 3 7
66 4 3
66 5 3
66 6 6
66 7 10
66 8 13
66 9 12
66 10 5
66 11 12
66 12 9
66 13 14
66 14 2
66 15 8
66 16 12
66 17 9
66 18 12
66 19 3
66 20 4
66 21 8
66 22 7
66 23 14
66 24 6
66 25 7
66 26 2
66 27 2
66 28 14
66 29 10
66 30 6
66 31 10
66 32 11
66 33 8
66 34 13
66 35 12
66 36 11
66 37 9
66 38 9
66 39 11
66 40 6
66 41 2
66 42 14
66 43 5
66 44 8
66 45 14
66 46 4
66 47 11
66 48 6
66 49 3
66 50 5
66 51 12
66 52 2
66 53 6
66 54 9
66 55 9
66 56 5
66 57 8
66 58 13
66 59 13
66 60 1
66 61 14
66 62 12
66 63 9
66 64 6
66 65 3
67 0 10
67 1 6
67 2 13
67 3 6
67 4 3
67 5 10
67 6 14
67 7 8
67 8 12
67 9 5
67 10 1
67 11 7
67 12 4
67 13 10
67 14 13
67 15 8
67 16 11
67 17 12
67 18 10
67 19 4
67 20 1
67 21 12
67 22 2
67 23 5
67 24 9
67 25 7
67 26 4
67 27 13
67 28 13
67 29 3
67 30 3
67 31 12
67 32 3
67 33 4
67 34 5
67 35 6
67 36 11
67 37 10
67 38 5
67 39 13
67 40 12
67 41 13
67 42 8
67 43 11
67 44 1
67 45 10
67 46 1
67 47 13
67 48 5
67 49 12
67 50 5
67 51 11
67 52 3
67 53 1
67 54 5
67 55 10
67 56 14
67 57 12
67 58 9
67 59 8
67 60 12
67 61 7
67 62 10
67 63 12
67 64 13
67 65 1
67 66 5
68 0 6
68 1 13
68 2 5
68 3 6
68 4 14
68 5 8
68 6 10
68 7 10
68 8 10
68 9 8
68 10 8
68 11 14
68 12 3
68 13 13
68 14 3
68 15 5
68 16 10
68 17 4
68 18 12
68 19 3
68 20 10
68 21 2
68 22 12
68 23 10
68 24 13
68 25 11
68 26 4
68 27 5
68 28 2
68 29 14
68 30 5
68 31 7
68 32 6
68 33 1
68 34 5
68 35 6
68 36 9
68 37 8
68 38 6
68 39 2
68 40 6
68 41 6
68 42 14
68 43 14
68 44 6
68 45 12
68 46 3
68 47 11
68 48 14
68 49 3
68 50 1
68 51 3
68 52 7
68 53 12
68 54 6
68 55 3
68 56 3
68 57 2
68 58 2
68 59 14
68 60 1
68 61 13
68 62 10
68 63 5
68 64 10
68 65 13
68 66 11
68 67 12
69 0 5
69 1 14
69 2 9
69 3 1
69 4 8
69 5 5
69 6 8
69 7 2
69 8 9
69 9 9
69 10 4
69 11 11
69 12 4
69 13 1
69 14 2
69 15 13
69 16 12
69 17 11
69 18 9
69 19 1
69 20 8
69 21 10
69 22 12
69 23 10
69 24 9
69 25 3
69 26 14
69 27 13
69 28 2
69 29 6
69 30 6
69 31 10
69 32 11
69 33 8
69 34 5
69 35 14
69 36 11
69 37 5
69 38 3
69 39 3
69 40 2
69 41 8
69 42 2
69 43 8
69 44 2
69 45 12
69 46 3
69 47 4
69 48 11
69 49 8
69 50 11
69 51 9
69 52 8
69 53 10
69 54 4
69 55 3
69 56 11
69 57 12
69 58 3
69 59 10
69 60 1
69 61 14
69 62 10
69 63 14
69 64 7
69 65 14
69 66 11
69 67 5
69 68 6
